
  27    0


   0  13 2 3 4 5 6 7 11 12 22 23 24 25 26 
   9   6 18 17 16 14 10 8 
  10   6 21 19 17 16 14 13 
   9   4 20 17 15 13 
   4   2 19 9 
  10   2 18 16 
   6   2 15 14 
   4   1 15 
   3   1 13 
   5   1 13 
   1   1 14 
   9   1 13 
   4   1 27
   4   1 27
   6   1 27
   2   1 27
   5   1 27
   9   1 27
   9   1 27
   8   1 27
   4   1 27
  10   1 27
   8   1 27
   2   1 27
   4   1 27
   2   1 27
   0   0 
